(set-logic ALL)
(set-option :produce-models true)
(declare-sort BoundSet 0)
(declare-sort UnboundSet 0)
(declare-fun Broke (BoundSet BoundSet) Bool)
(declare-fun Received (BoundSet BoundSet) Bool)
(declare-fun TookFinal (BoundSet BoundSet) Bool)
(declare-fun ( (Bool) Bool)
(assert (not (=> (exists ((b BoundSet)) (exists ((c BoundSet)) (Broke b c))) (exists ((d BoundSet)) (exists ((a BoundSet)) (exists ((f BoundSet)) (exists ((e BoundSet)) (( (and (Received a d) (and (TookFinal a e) (Broke a f)))))))))))
(check-sat)
(get-model)